20
2 0 15
2 1 10
3 0 17
3 2 13
4 1 20
4 3 15
5 1 6
5 2 13
6 0 5
6 1 1
6 2 18
6 3 10
7 0 6
7 1 4
7 2 1
7 3 3
7 4 9
7 6 15
8 0 5
8 1 14
8 3 6
8 4 1
8 5 19
8 6 13
9 1 8
9 2 20
9 3 19
9 4 5
9 6 17
9 7 3
9 8 14
10 0 2
10 1 11
10 2 7
10 3 10
10 5 9
10 6 9
10 7 1
10 9 14
11 0 10
11 1 3
11 2 4
11 4 9
11 5 2
11 6 18
11 7 12
11 8 6
11 10 20
12 0 19
12 1 11
12 5 20
12 6 1
12 7 10
12 8 20
12 9 14
12 10 14
12 11 14
13 0 11
13 1 2
13 2 8
13 4 7
13 5 6
13 6 3
13 9 15
13 11 11
13 12 9
14 0 10
14 2 1
14 3 5
14 4 20
14 5 13
14 6 16
14 7 1
14 8 13
14 9 20
14 13 1
15 1 17
15 2 11
15 4 13
15 7 14
15 11 14
15 12 8
15 14 2
16 0 10
16 1 10
16 2 4
16 3 3
16 5 11
16 6 13
16 7 17
16 9 16
16 11 12
16 12 8
16 13 10
17 0 18
17 1 4
17 3 8
17 4 11
17 5 13
17 7 12
17 8 19
17 9 20
17 10 15
17 11 14
17 12 1
17 14 4
17 15 10
17 16 20
18 0 19
18 1 10
18 3 7
18 4 6
18 5 11
18 6 8
18 7 3
18 8 1
18 9 20
18 10 5
18 11 10
18 13 7
18 14 12
18 15 14
18 17 16
19 0 8
19 1 8
19 4 15
19 5 4
19 6 5
19 7 19
19 8 6
19 10 6
19 11 1
19 12 10
19 14 17
19 15 10
19 16 12
19 17 9
19 18 10
